c --- [ banner ] -------------------------------------------------------------
c 
c CaDiCaL Radically Simplified CDCL SAT Solver
c Copyright (c) 2016-2021 A. Biere, M. Fleury, N. Froleyks
c 
c Version 1.5.2 a5f15211db36c3956764e18194dd5bd63bf3b5e6
c g++ (GCC) 9.3.0 -Wall -Wextra -O3 -DNDEBUG
c Fri Oct 21 01:27:37 EDT 2022 Linux gra-login3 3.10.0-1160.66.1.el7.x86_64 x86_64
c 
c --- [ limit ] --------------------------------------------------------------
c 
c setting conflict limit to 200000 conflicts (due to '200000')
c 
c --- [ parsing input ] ------------------------------------------------------
c 
c reading DIMACS file from '33.cubes4629.adj'
c opening file to read '33.cubes4629.adj'
c found 'p cnf 6160 1595472' header
c parsed 1595472 clauses in 19.22 seconds process time
c closing file '33.cubes4629.adj'
c after reading 1457566755 bytes 1390.0 MB
c 
c --- [ options ] ------------------------------------------------------------
c 
c all options are set to their default value
c 
c --- [ solving ] ------------------------------------------------------------
c 
c time measured in process time since initialization
c 
c  seconds    reductions  redundant   irredundant
c          MB     restarts       trail       variables
c            level   conflicts       glue         remaining
c 
c * 19.22 1376  0 0   0    0    0  0% 0 1595422 2361 38%
c { 19.87 1423  0 0   0    0    0  0% 0 1595422 2361 38%
c i 19.88 1424  1 0   0    1    0 13% 0 1595422 2348 38%
c i 21.69 1484 621 0   4   30   26 37% 15 1595422 2347 38%
c i 21.82 1486 507 0   5   37   30 35% 18 1595422 2346 38%
c i 21.93 1486 388 0   8   49   36 33% 20 1595422 2345 38%
c i 22.12 1488 330 0  11   59   44 32% 20 1595422 2344 38%
c i 22.12 1488 320 0  11   61   45 32% 20 1595422 2343 38%
c i 22.12 1488 315 0  11   62   45 32% 19 1595422 2342 38%
c i 23.06 1497 199 0  22  122   98 29% 29 1595422 2298 37%
c i 23.17 1498 189 0  24  132  105 29% 28 1595422 2264 37%
c i 23.58 1499 135 0  25  193  152 29% 23 1595422 2235 36%
c i 23.65 1499 134 0  25  196  154 29% 23 1595422 2234 36%
c i 23.83 1499 123 0  25  217  166 29% 22 1595422 2233 36%
c i 23.99 1500 113 0  25  241  181 29% 21 1595422 2232 36%
c i 24.23 1500 99 0  25  296  225 29% 22 1595422 2231 36%
c i 24.23 1500 98 0  25  298  226 29% 22 1595422 2230 36%
c i 24.23 1500 98 0  25  299  226 29% 22 1595422 2229 36%
c i 24.23 1500 98 0  25  300  226 29% 21 1595422 2228 36%
c - 27.81 1455 98 1  25  300  223 29% 21 208747 2228 36%
c 
c  seconds    reductions  redundant   irredundant
c          MB     restarts       trail       variables
c            level   conflicts       glue         remaining
c 
c i 28.01 1378 98 1  25  306  227 29% 22 208747 2227 36%
c i 28.31 1378 92 1  36  359  266 29% 23 208747 2226 36%
c i 28.54 1378 93 1  43  400  303 29% 25 208747 2225 36%
c i 28.57 1378 92 1  47  415  315 29% 25 208747 2224 36%
c i 28.62 1378 90 1  54  445  340 29% 26 208747 2223 36%
c i 28.63 1378 89 1  56  451  344 29% 26 208747 2222 36%
c i 28.63 1378 89 1  57  454  346 29% 25 208747 2221 36%
c i 28.67 1378 89 1  58  461  348 29% 26 208747 2219 36%
c i 28.92 1378 88 1  68  496  379 29% 27 208747 2218 36%
c i 29.02 1378 86 1  75  522  402 29% 28 208747 2217 36%
c i 29.09 1378 86 1  79  539  418 29% 29 208747 2216 36%
c i 29.22 1378 84 1  85  566  431 29% 28 208747 2215 36%
c i 29.24 1378 84 1  85  568  432 29% 28 208747 2214 36%
c i 29.24 1378 84 1  85  570  433 29% 28 208747 2213 36%
c i 29.64 1378 86 1 103  651  506 29% 31 208747 2212 36%
c i 29.77 1378 85 1 109  682  536 29% 30 208747 2211 36%
c i 29.93 1378 83 1 110  725  573 29% 30 208747 2210 36%
c i 29.94 1378 83 1 110  726  573 29% 30 208747 2209 36%
c i 30.22 1378 76 1 111  868  686 29% 28 208747 2208 36%
c i 30.23 1378 75 1 111  883  698 29% 28 208747 2207 36%
c 
c  seconds    reductions  redundant   irredundant
c          MB     restarts       trail       variables
c            level   conflicts       glue         remaining
c 
c i 30.26 1378 73 1 111  921  730 29% 28 208747 2206 36%
c i 30.28 1378 69 1 111  998  781 29% 27 208747 2205 36%
c } 30.29 1378 69 1 111 1000  783 29% 27 208747 2205 36%
c [ 30.29 1378  0 1 111 1000  783  0% 0 208747 2205 36%
c O 30.32 1378 23 1 111 1004  787 33% 15 208747 2205 36%
c i 30.34 1378 17 1 111 1008  790 33% 10 208747 2204 36%
c i 30.35 1378 17 1 111 1011  792 33% 11 208747 2203 36%
c i 30.39 1378 17 1 111 1026  804 32% 13 208747 2202 36%
c i 30.39 1378 17 1 111 1028  805 32% 12 208747 2201 36%
c i 30.40 1378 18 1 111 1033  806 32% 13 208747 2200 36%
c i 30.40 1378 18 1 111 1036  808 32% 14 208747 2199 36%
c - 30.80 1461 21 2 111 1092  727 30% 16 208664 2199 36%
c i 30.89 1461 20 2 111 1120  741 30% 16 208664 2198 36%
c i 30.96 1461 19 2 111 1207  783 30% 15 208664 2197 36%
c i 31.12 1461 17 2 111 1472  905 30% 14 208664 2196 36%
c i 31.23 1461 19 2 111 1636 1010 30% 15 208664 2195 36%
c i 31.52 1461 19 2 112 2207 1317 30% 16 208664 2194 36%
c - 31.82 1460 20 3 112 2281  992 30% 16 208651 2194 36%
c ] 32.41 1459 20 3 112 3000 1416 48% 17 208651 2194 36%
c { 32.41 1459 69 3 112 3000 1416 82% 27 208651 2194 36%
c 
c  seconds    reductions  redundant   irredundant
c          MB     restarts       trail       variables
c            level   conflicts       glue         remaining
c 
c F 32.47 1459 69 3 112 3008 1422 82% 27 208651 2194 36%
c i 32.62 1459 62 3 112 3180 1552 76% 25 208651 2193 36%
c i 33.15 1460 61 3 142 3430 1763 71% 26 208651 2192 36%
c i 33.16 1460 61 3 143 3431 1763 71% 26 208651 2191 36%
c i 33.30 1460 61 3 147 3449 1780 71% 26 208651 2190 36%
c i 33.33 1460 60 3 149 3466 1795 70% 26 208651 2189 36%
c i 33.49 1460 53 3 149 3761 2034 66% 24 208651 2188 36%
c - 33.71 1380 52 4 149 3865 1668 65% 23 208635 2188 36%
c d 34.32 1380 40 4 149 5000 2529 58% 20 179558 2179 35%
c 2 34.36 1380 40 4 149 5000 3226 58% 20 179547 2166 35%
c p 36.97 1380 40 4 149 5000 6874 58% 20 179547 2040 33%
c d 37.26 1380 40 4 149 5000 6257 58% 20 178192 2034 33%
c d 37.30 1380 40 4 149 5000 6256 58% 20 178191 2033 33%
c - 37.76 1380 35 5 149 5845 2464 56% 19 178191 2033 33%
c # 37.82 1380 34 5 149 6010 2592 55% 19 178191 2033 33%
c } 38.29 1379 33 5 179 7003 3375 53% 19 178191 2033 33%
c [ 38.29 1380 20 5 179 7003 3375 48% 17 178191 2033 33%
c - 38.71 1380 24 6 180 8099 2851 46% 19 178191 2033 33%
c I 39.43 1380 29 6 181 10012 4376 46% 22 178191 2033 33%
c - 39.75 1380 30 7 182 10726 3443 46% 24 178191 2033 33%
c 
c  seconds    reductions   redundant   irredundant
c          MB     restarts        trail       variables
c            level    conflicts       glue         remaining
c 
c - 40.53 1380 28 8 184 13730 3263 47% 23 178191 2033 33%
c 2 40.89 1380 28 8 184 15001 4698 47% 24 178185 2033 33%
c p 42.15 1380 28 8 184 15001 7750 47% 24 178185 2032 33%
c ] 42.20 1380 28 8 184 15003 7752 47% 24 178185 2032 33%
c { 42.20 1380 33 8 184 15003 7752 53% 19 178185 2032 33%
c B 42.23 1380 33 8 184 15013 7761 53% 19 178185 2032 33%
c - 43.75 1380 30 9 264 17107 4163 51% 18 178182 2032 33%
c s 44.26 1380 28 9 329 18801 5155 51% 17 175731 2032 33%
c v 46.40 1380 28 9 329 18801 5155 51% 17 175701 2032 33%
c t 46.47 1380 28 9 329 18801 5103 51% 17 175671 2032 33%
c e 46.89 1381 28 9 329 18801 4828 51% 17 173569 758 12%
c s 46.99 1381 28 9 329 18801 4826 51% 17 172577 758 12%
c - 48.11 1381 25 10 366 20860 4359 65% 17 172577 758 12%
c W 48.25 1381 25 10 366 21014 4447 65% 17 172577 758 12%
c - 50.26 1381 24 11 555 24942 4708 65% 17 172577 758 12%
c F 51.31 1381 23 11 658 28015 6649 65% 16 172577 758 12%
c - 52.11 1381 23 12 733 29396 5231 65% 17 172577 758 12%
c 2 52.42 1381 23 12 748 30003 6046 65% 16 172575 758 12%
c p 54.11 1380 23 12 748 30003 7548 65% 16 172575 756 12%
c } 54.78 1380 23 12 748 31007 8036 65% 16 172575 756 12%
c 
c  seconds    reductions    redundant    irredundant
c          MB      restarts        trail        variables
c            level     conflicts        glue        remaining
c 
c [ 54.78 1380 28 12 748 31007 8036 136% 24 172575 756 12%
c i 55.24 1380 27 12 748 31751 8427 130% 23 172575 755 12%
c - 56.06 1380 30 13 749 34222 5366 116% 24 172566 755 12%
c B 56.59 1381 30 13 751 36020 6640 110% 24 172566 755 12%
c - 57.61 1380 33 14 753 39417 6689 100% 27 172566 755 12%
c - 59.14 1380 33 15 755 44985 7337 91% 27 172566 755 12%
c W 59.62 1380 33 15 755 45022 7369 91% 27 172566 755 12%
c p 61.75 1380 30 15 756 50003 12678 86% 25 172566 755 12%
c s 62.05 1381 30 15 756 50125 12756 86% 25 171923 755 12%
c v 63.63 1381 30 15 756 50125 12756 86% 25 171871 755 12%
c t 63.74 1381 30 15 756 50125 12745 86% 25 171869 755 12%
c e 64.16 1382 30 15 756 50125 12745 86% 25 171868 754 12%
c s 64.31 1382 30 15 756 50125 12745 86% 25 171345 754 12%
c - 65.14 1381 30 16 756 50922 7621 86% 25 171345 754 12%
c O 65.86 1381 29 16 757 55023 10027 83% 24 171345 754 12%
c - 66.32 1381 28 17 759 57214 7453 82% 24 171345 754 12%
c ] 67.47 1382 28 17 763 63011 11023 79% 23 171345 754 12%
c { 67.47 1382 23 17 763 63011 11023 65% 16 171345 754 12%
c - 68.19 1381 23 18 852 63876 7998 65% 16 171345 754 12%
c B 68.86 1381 22 18 894 66024 9367 65% 16 171345 754 12%
c 
c  seconds    reductions     redundant   irredundant
c          MB      restarts         trail       variables
c            level      conflicts       glue        remaining
c 
c - 70.58 1381 21 19 1029 70909 8490 66% 15 171345 754 12%
c p 72.95 1381 20 19 1098 75004 13124 66% 15 171345 754 12%
c W 74.34 1381 20 19 1178 78026 14829 66% 15 171345 754 12%
c - 74.50 1381 20 20 1181 78314 9391 66% 15 171345 754 12%
c - 78.55 1381 19 21 1466 86088 10038 66% 14 171345 754 12%
c } 79.51 1381 19 21 1602 89688 11921 66% 14 171345 754 12%
c 1 79.51 1381 19 21 1602 89688 11921 66% 14 171345 754 12%
c 
c --- [ writing output ] -----------------------------------------------------
c 
c writing simplified CNF to DIMACS file 'simp/33.cubes4629.adj.simp1'
c * 79.51 1381 19 21 1602 89688 11921 66% 14 171345 754 12%
c opening file to write 'simp/33.cubes4629.adj.simp1'
c writing 'p cnf 6160 171345' header
c closing file 'simp/33.cubes4629.adj.simp1'
c after writing 62794660 bytes 59.9 MB
c wrote 171345 clauses in 0.45 seconds process time
c 
c --- [ writing extension ] --------------------------------------------------
c 
c writing extension stack to 'simp/33.cubes4629.adj.ext1'
c opening file to write 'simp/33.cubes4629.adj.ext1'
c closing file 'simp/33.cubes4629.adj.ext1'
c after writing 81619 bytes 0.1 MB
c wrote 3746 witnesses in 0.00 seconds process time
c 
c --- [ result ] -------------------------------------------------------------
c 
s SATISFIABLE
c 
c --- [ run-time profiling ] -------------------------------------------------
c 
c process time taken by individual solving procedures
c (percentage relative to process time for solving)
c 
c        46.07   76.40% search
c        31.50   52.24% unstable
c        19.22   31.87% parse
c        14.23   23.60% simplify
c        13.23   21.93% stable
c         7.42   12.30% probe
c         3.87    6.41% vivify
c         1.67    2.77% elim
c         0.69    1.14% walk
c         0.65    1.08% lucky
c         0.48    0.80% subsume
c         0.10    0.17% ternary
c   =================================
c        60.30   75.40% solve
c 
c last line shows process time for solving
c (percentage relative to total process time)
c 
c --- [ statistics ] ---------------------------------------------------------
c 
c chronological:             15680        17.48 %  of conflicts
c conflicts:                 89688      1487.45    per second
c decisions:                154028      2554.51    per second
c eliminated:                 1275        20.70 %  of all variables
c fixed:                       971        15.76 %  of all variables
c learned:                   87772        97.86 %  per conflict
c learned_lits:           12352196       100.00 %  learned literals
c minimized:                     0         0.00 %  learned literals
c shrunken:                8570077        69.38 %  learned literals
c minishrunken:             734369         5.95 %  learned literals
c propagations:            6598740         0.11 M  per second
c reduced:                   44326        49.42 %  per conflict
c rephased:                     12      7474.00    interval
c restarts:                   1602        55.99    interval
c stabilizing:                   3        46.83 %  of conflicts
c substituted:                  16         0.26 %  of all variables
c subsumed:                  34967         1.02 %  of all clauses
c strengthened:              17842         0.52 %  of all clauses
c ternary:                    2844         0.64 %  of resolved
c vivified:                    105         0.00 %  of all clauses
c walked:                        3     29896.00    interval
c weakened:                   2775         3.05    average size
c 
c seconds are measured in process time for solving
c 
c --- [ resources ] ----------------------------------------------------------
c 
c total process time since initialization:        79.97    seconds
c total real time since initialization:           80.20    seconds
c maximum resident set size of process:         1541.64    MB
c 
c --- [ shutting down ] ------------------------------------------------------
c 
c exit 10
WARNING! DIMACS header mismatch: wrong number of variables.
============================[ Problem Statistics ]=============================
|                                                                             |
|  Number of variables:          3492                                         |
|  Number of clauses:          171353                                         |
|  Parse time:                   0.82 s                                       |
|  Simplification time:          0.02 s                                       |
|                                                                             |
============================[ Search Statistics ]====================================================
| Conflicts |          ORIGINAL         |          LEARNT          | Num Sols |      SUBGRAPHS      |
|           |    Vars  Clauses Literals |    Limit  Clauses Lit/Cl |          | Canonical Noncanon. |
=====================================================================================================
|       100 |    3389   171353 13619563 |     2000      100    106 |        0 |        15         0 |
|       251 |    3389   171354 13619573 |     2000      251     88 |        0 |        31         1 |
|       487 |    3389   171365 13619719 |     2000      487     75 |        0 |        38        12 |
|       838 |    3389   171379 13619919 |     2000      838     66 |        0 |        54        26 |
|      1348 |    3389   171383 13619993 |     2000     1348     64 |        0 |        74        30 |
|      2120 |    3389   171396 13620216 |     3603     1123     37 |        0 |       100        43 |
|      3268 |    3389   171405 13620284 |     3603     2271     52 |        0 |       106        52 |
|      5027 |    3389   171456 13621060 |     5004     2231     37 |        0 |       137       103 |
|      7675 |    3389   171542 13622433 |     5004     4879     59 |        0 |       192       189 |
|     11709 |    3389   171732 13624865 |     7559     3268     24 |        0 |       279       379 |
|     17734 |    3389   171991 13629458 |     8786     5520     35 |        0 |       370       638 |
|     26618 |    3389   172226 13633337 |    11210     5028     18 |        0 |       488       873 |
|     39856 |    3389   172490 13637850 |    13618     6474     21 |        0 |       575      1137 |
|     59820 |    3389   172993 13646462 |    16013    12233     40 |        0 |       713      1640 |
|     89497 |    3389   173478 13654213 |    19608    16105     48 |        0 |       905      2125 |
|    133866 |    3389   174058 13664647 |    24406    17672     39 |        0 |      1085      2705 |
|    200342 |    3389   174850 13678585 |    30406    17148     30 |        0 |      1339      3497 |
|    299505 |    3388   175482 13689529 |    36308    34213     51 |        0 |      1595      4134 |
|    447885 |    3388   176073 13700856 |    44806    42691     50 |        0 |      1796      4725 |
=====================================================================================================
Number of solutions   : 0
Canonical subgraphs   : 1972           (3 /sec)
          order  3    : 1              (166667 /sec)
          order  4    : 1              (500000 /sec)
          order  5    : 1              (250000 /sec)
          order  6    : 1              (52632 /sec)
          order  7    : 1              (8197 /sec)
          order  8    : 1              (1006 /sec)
          order  9    : 2              (150 /sec)
          order 10    : 6              (33 /sec)
          order 11    : 24             (9 /sec)
          order 12    : 112            (3 /sec)
          order 13    : 359            (2 /sec)
          order 14    : 670            (4 /sec)
          order 15    : 793            (5 /sec)
          order 16    : 0              (-nan /sec)
          order 17    : 0              (-nan /sec)
          order 18    : 0              (-nan /sec)
          order 19    : 0              (-nan /sec)
          order 20    : 0              (-nan /sec)
          order 21    : 0              (-nan /sec)
          order 22    : 0              (-nan /sec)
Noncanonical subgraphs: 5037           (415 /sec)
          order  3    : 0              (-nan /sec)
          order  4    : 0              (-nan /sec)
          order  5    : 0              (-nan /sec)
          order  6    : 0              (-nan /sec)
          order  7    : 0              (-nan /sec)
          order  8    : 0              (-nan /sec)
          order  9    : 0              (-nan /sec)
          order 10    : 0              (-nan /sec)
          order 11    : 0              (-nan /sec)
          order 12    : 0              (-nan /sec)
          order 13    : 1163           (25285 /sec)
          order 14    : 3042           (7531 /sec)
          order 15    : 350            (5786 /sec)
          order 16    : 482            (41 /sec)
          order 17    : 0              (-nan /sec)
          order 18    : 0              (-nan /sec)
          order 19    : 0              (-nan /sec)
          order 20    : 0              (-nan /sec)
          order 21    : 0              (-nan /sec)
Canonicity checking   : 566.987 s
Noncanonicity checking: 12.1363 s
Total canonicity time : 579.123 s
database reductions   : 40
restarts              : 1150
conflicts             : 552535         (748 /sec)
decisions             : 717473         (0.00 % random) (971 /sec)
propagations          : 27934406       (37798 /sec)
conflict literals     : 41952989       (55.46 % deleted)
actual reward         : 0.258787
Memory used           : 181.00 MB
CPU time              : 739.043 s

UNSATISFIABLE
